(set-logic QF_S)
(declare-fun var0 () String)
(assert (str.in.re var0 (re.++ (re.+ (re.+ (str.to.re "00"))) (re.++ (re.union (re.* (str.to.re "1")) (re.* (str.to.re "222"))) (re.++ (re.* (re.* (str.to.re "3"))) (re.++ (re.* (re.union (str.to.re "444") (str.to.re "55"))) (re.++ (re.union (re.* (str.to.re "6")) (re.* (str.to.re "7"))) (re.++ (re.* (re.* (str.to.re "888"))) (re.++ (re.+ (re.union (str.to.re "99") (str.to.re "aaa"))) (re.++ (re.union (re.union (str.to.re "b") (str.to.re "ccc")) (re.union (str.to.re "dd") (str.to.re "ee"))) (re.++ (re.union (re.union (str.to.re "ff") (str.to.re "g")) (re.union (str.to.re "hh") (str.to.re "i"))) (re.++ (re.union (re.+ (str.to.re "jj")) (re.+ (str.to.re "kk"))) (re.++ (re.+ (re.union (str.to.re "ll") (str.to.re "m"))) (re.++ (re.* (re.+ (str.to.re "n"))) (re.++ (re.* (re.+ (str.to.re "ooo"))) (re.++ (re.union (re.* (str.to.re "p")) (re.* (str.to.re "qq"))) (re.++ (re.union (re.+ (str.to.re "rrr")) (re.+ (str.to.re "ss"))) (re.++ (re.* (re.+ (str.to.re "ttt"))) (re.++ (re.+ (re.* (str.to.re "u"))) (re.++ (re.union (re.* (str.to.re "vv")) (re.* (str.to.re "www"))) (re.++ (re.+ (re.+ (str.to.re "xx"))) (re.++ (re.union (re.union (str.to.re "yyy") (str.to.re "zzz")) (re.union (str.to.re "A") (str.to.re "BB"))) (re.++ (re.* (re.* (str.to.re "CC"))) (re.++ (re.* (re.* (str.to.re "DDD"))) (re.+ (re.union (str.to.re "EEE") (str.to.re "FF")))))))))))))))))))))))))))
(check-sat)